=1
=2
=0IBM ILOG CPLEX   42.1.0 cb854401 Feb 1, 2023           LEG x86 64bit/Linux    
=1
--- GAMS/Cplex licensed for continuous and discrete problems.
=2
=C
=1
=CReading parameter(s) from "/storage/home/ejm6426/scratch/rtRBA-main/parameterization/kapp/datasets/Rabinowitz2023_batchGlc/min_flux_violation/cplex.opt"
=C>>  optcr = 1E-12
=C>>  optca = 1E-12
=C>>  eprhs = 1E-9
=C>> 
=CFinished reading from "/storage/home/ejm6426/scratch/rtRBA-main/parameterization/kapp/datasets/Rabinowitz2023_batchGlc/min_flux_violation/cplex.opt"
=2
=C
=1
--- GMO setup time: 0.00s
=2
=1
--- Space for names approximately 0.57 Mb
=2
=1
--- Use option 'names no' to turn use of names off
=2
=1
--- GMO memory 6.63 Mb (peak 6.73 Mb)
=2
=1
--- Dictionary memory 0.00 Mb
=2
=1
--- Cplex 22.1.1.0 link memory 0.31 Mb (peak 2.21 Mb)
=2
=1
--- Starting Cplex
=2
=C
Version identifier: 22.1.1.0 | 2022-11-28 | 9160aff4d
CPXPARAM_Advance                                 0
CPXPARAM_Threads                                 1
CPXPARAM_MIP_Display                             4
CPXPARAM_MIP_Pool_Capacity                       0
CPXPARAM_Simplex_Limits_Iterations               1000000
CPXPARAM_Simplex_Tolerances_Feasibility          1.0000000000000001e-09
CPXPARAM_TimeLimit                               1000000
CPXPARAM_MIP_Tolerances_AbsMIPGap                9.9999999999999998e-13
CPXPARAM_MIP_Tolerances_MIPGap                   9.9999999999999998e-13
Tried aggregator 1 time.
LP Presolve eliminated 3211 rows and 9470 columns.
Aggregator did 1917 substitutions.
Reduced LP has 613 rows, 1287 columns, and 12293 nonzeros.
Presolve time = 0.02 sec. (18.18 ticks)

Iteration log . . .
Iteration:     1   Dual objective     =             0.008245
Perturbation started.
Iteration:   101   Dual objective     =             0.008245
Iteration:   176   Dual objective     =          7083.929771
Iteration:   239   Dual objective     =          8433.377407
Iteration:   301   Dual objective     =         10366.305051
Iteration:   363   Dual objective     =         11107.480115
Iteration:   425   Dual objective     =         11429.622268
Iteration:   487   Dual objective     =         11773.171421
Iteration:   566   Dual objective     =         12060.729044
Iteration:   639   Dual objective     =         12062.795920
Iteration:   701   Dual objective     =         12062.796209
Iteration:   763   Dual objective     =         12062.796366
Removing perturbation.
Iteration:   799   Dual objective     =             0.008413
=C
=1
--- LP status (1): optimal.
=2
=1
--- Cplex Time: 0.09sec (det. 45.03 ticks)

=2
=C
=COptimal solution found
=CObjective:            0.008413
=C
